
Gurobi 7.5.2 (linux64) logging started Sat Jul  7 16:12:40 2018

Changed value of parameter LogFile to result/ilp/simNo_9-n_100-m_40-s_7-minVAF_0.05-cov_10000-k_1-fn_0.10-fp_0.0001-na_0.15.ILP.gurobiSolverLog
   Prev: gurobi.log  Default: 
Changed value of parameter TimeLimit to 86400.0
   Prev: 1e+100  Min: 0.0  Max: 1e+100  Default: 1e+100
Warning for adding constraints: zero or small (< 1e-13) coefficients, ignored
Optimize a model with 639293 rows, 10765 columns and 1940419 nonzeros
Variable types: 0 continuous, 10765 integer (10765 binary)
Coefficient statistics:
  Matrix range     [1e-04, 4e+00]
  Objective range  [2e+00, 1e+01]
  Bounds range     [1e+00, 1e+00]
  RHS range        [9e-02, 2e+00]
Found heuristic solution: objective -7156.356765
Presolve removed 141617 rows and 1139 columns (presolve time = 5s) ...
Presolve removed 142311 rows and 1139 columns (presolve time = 13s) ...
Presolve removed 211611 rows and 1832 columns (presolve time = 15s) ...
Presolve removed 211611 rows and 1832 columns (presolve time = 20s) ...
Presolve removed 211611 rows and 1832 columns
Presolve time: 20.14s
Presolved: 427682 rows, 8933 columns, 1284850 nonzeros
Variable types: 0 continuous, 8933 integer (8933 binary)
Presolved: 8933 rows, 436615 columns, 1293783 nonzeros

Presolve removed 8933 rows and 436615 columns

Root simplex log...

Iteration    Objective       Primal Inf.    Dual Inf.      Time
       0    1.0192875e+01   0.000000e+00   3.641800e+04     24s
    7707   -1.1786259e+02   0.000000e+00   6.512482e+03     25s
    8052   -1.1808382e+02   0.000000e+00   0.000000e+00     26s
    8052   -1.1808382e+02   0.000000e+00   0.000000e+00     27s

Root relaxation: objective -1.180838e+02, 8052 iterations, 5.12 seconds
Total elapsed time = 43.29s
Total elapsed time = 46.70s

    Nodes    |    Current Node    |     Objective Bounds      |     Work
 Expl Unexpl |  Obj  Depth IntInf | Incumbent    BestBd   Gap | It/Node Time

     0     0 -118.08382    0  194 -7156.3568 -118.08382  98.3%     -   50s
H    0     0                    -140.9398595 -118.08382  16.2%     -   52s
H    0     0                    -126.2057921 -118.08382  6.44%     -   54s
     0     0 -119.11405    0  194 -126.20579 -119.11405  5.62%     -   59s
     0     0 -120.26315    0  207 -126.20579 -120.26315  4.71%     -   86s
     0     0 -120.26315    0  178 -126.20579 -120.26315  4.71%     -  124s
     0     0 -120.98978    0  244 -126.20579 -120.98978  4.13%     -  124s
     0     0 -121.05465    0   77 -126.20579 -121.05465  4.08%     -  125s
     0     0 -121.84327    0  179 -126.20579 -121.84327  3.46%     -  125s
     0     0 -122.05690    0  252 -126.20579 -122.05690  3.29%     -  125s
     0     0 -122.05690    0  247 -126.20579 -122.05690  3.29%     -  126s
     0     0 -122.05690    0  255 -126.20579 -122.05690  3.29%     -  126s
     0     0 -122.40227    0  246 -126.20579 -122.40227  3.01%     -  126s
     0     0 -122.40798    0  249 -126.20579 -122.40798  3.01%     -  127s
     0     0 -122.41143    0  251 -126.20579 -122.41143  3.01%     -  127s
     0     0 -122.69451    0  248 -126.20579 -122.69451  2.78%     -  127s
     0     0 -122.69451    0  115 -126.20579 -122.69451  2.78%     -  128s
     0     0 -122.69451    0   96 -126.20579 -122.69451  2.78%     -  129s
     0     0 -122.71985    0  113 -126.20579 -122.71985  2.76%     -  129s
     0     0 -122.85160    0  131 -126.20579 -122.85160  2.66%     -  129s
     0     0 -122.87158    0  131 -126.20579 -122.87158  2.64%     -  129s
     0     0 -122.87158    0  132 -126.20579 -122.87158  2.64%     -  129s
     0     0 -123.35085    0  131 -126.20579 -123.35085  2.26%     -  129s
     0     0 -123.35085    0   87 -126.20579 -123.35085  2.26%     -  129s
     0     0 -123.35085    0   57 -126.20579 -123.35085  2.26%     -  129s
     0     0 -123.35085    0   98 -126.20579 -123.35085  2.26%     -  129s
     0     0 -123.35085    0  101 -126.20579 -123.35085  2.26%     -  129s
     0     0 -123.35085    0  102 -126.20579 -123.35085  2.26%     -  129s
     0     0 -123.59088    0  105 -126.20579 -123.59088  2.07%     -  129s
     0     0 -123.69015    0  105 -126.20579 -123.69015  1.99%     -  129s
     0     0 -124.14533    0   76 -126.20579 -124.14533  1.63%     -  130s
     0     0 -124.14533    0   75 -126.20579 -124.14533  1.63%     -  130s
     0     0 -124.14533    0   78 -126.20579 -124.14533  1.63%     -  130s
     0     0 -124.15260    0  107 -126.20579 -124.15260  1.63%     -  130s
     0     0 -124.15260    0   73 -126.20579 -124.15260  1.63%     -  130s
     0     0 -124.15260    0   63 -126.20579 -124.15260  1.63%     -  130s
     0     0 -124.15260    0   64 -126.20579 -124.15260  1.63%     -  130s
     0     0 -124.15260    0   56 -126.20579 -124.15260  1.63%     -  130s
     0     0 -124.15795    0   93 -126.20579 -124.15795  1.62%     -  130s
     0     0 -124.16378    0   94 -126.20579 -124.16378  1.62%     -  130s
     0     0 -124.20527    0   86 -126.20579 -124.20527  1.59%     -  130s
     0     0 -124.20527    0   88 -126.20579 -124.20527  1.59%     -  130s
     0     0 -124.20527    0   91 -126.20579 -124.20527  1.59%     -  130s
     0     0 -124.20527    0   91 -126.20579 -124.20527  1.59%     -  130s
     0     0 -124.20527    0   83 -126.20579 -124.20527  1.59%     -  130s
     0     0 -124.20527    0   84 -126.20579 -124.20527  1.59%     -  130s
     0     0 -124.20527    0   85 -126.20579 -124.20527  1.59%     -  130s
     0     0 -124.99197    0   47 -126.20579 -124.99197  0.96%     -  130s
     0     0 -124.99197    0   47 -126.20579 -124.99197  0.96%     -  130s

Explored 1 nodes (23272 simplex iterations) in 130.76 seconds
Thread count was 1 (of 80 available processors)

Solution count 7: -126.206 -126.206 -126.206 ... -7156.36

Optimal solution found (tolerance 1.00e-04)
Best objective -1.262057921214e+02, best bound -1.262057921214e+02, gap 0.0000%
